unknown
(model
; cardinality of BoundSet is 3
(declare-sort BoundSet 0)
; rep: @uc_BoundSet_0
; rep: @uc_BoundSet_1
; rep: @uc_BoundSet_2
; cardinality of UnboundSet is 1
(declare-sort UnboundSet 0)
(declare-fun groundTerm_4 () UnboundSet)
(define-fun IsSeatedOn ((BOUND_VARIABLE_481 BoundSet) (BOUND_VARIABLE_482 BoundSet)) Bool true)
(define-fun IsOutside ((BOUND_VARIABLE_485 BoundSet)) Bool true)
(define-fun IsSittingOn ((BOUND_VARIABLE_481 BoundSet) (BOUND_VARIABLE_482 BoundSet)) Bool false)
(define-fun IsInFrontOf ((BOUND_VARIABLE_485 BoundSet)) Bool false)
)
sat
(model
; cardinality of BoundSet is 1
(declare-sort BoundSet 0)
; rep: @uc_BoundSet_0
; cardinality of UnboundSet is 1
(declare-sort UnboundSet 0)
(declare-fun groundTerm_11 () UnboundSet)
(define-fun IsSeatedOn ((BOUND_VARIABLE_564 BoundSet) (BOUND_VARIABLE_565 BoundSet)) Bool true)
(define-fun IsOutside ((BOUND_VARIABLE_568 BoundSet)) Bool true)
(define-fun IsSittingOn ((BOUND_VARIABLE_564 BoundSet) (BOUND_VARIABLE_565 BoundSet)) Bool true)
(define-fun IsInFrontOf ((BOUND_VARIABLE_568 BoundSet)) Bool false)
)
